<number of tasks>
89

<cycle time>
92

<task times>
1 28
2 17
3 7
4 10
5 12
6 16
7 13
8 8
9 13
10 24
11 16
12 24
13 12
14 20
15 22
16 22
17 22
18 47
19 6
20 12
21 6
22 22
23 7
24 14
25 68
26 15
27 8
28 74
29 32
30 11
31 18
32 15
33 42
34 27
35 38
36 38
37 26
38 35
39 31
40 8
41 14
42 8
43 8
44 8
45 17
46 7
47 19
48 12
49 24
50 26
51 22
52 14
53 27
54 60
55 4
56 2
57 1
58 9
59 5
60 6
61 7
62 12
63 2
64 11
65 14
66 6
67 21
68 14
69 1
70 6
71 21
72 11
73 14
74 28
75 12
76 11
77 30
78 22
79 14
80 31
81 18
82 16
83 7
84 38
85 8
86 31
87 29
88 12
89 18

<precedence relations>
1,2
2,3
3,4
4,5
4,6
4,7
4,8
4,9
5,10
6,11
7,12
8,18
9,18
10,14
11,12
12,13
13,14
14,15
14,16
15,17
16,54
17,18
18,19
18,20
19,22
20,21
20,28
21,54
22,23
23,24
24,25
25,26
25,27
25,29
26,37
27,33
28,29
29,31
30,54
31,32
32,33
33,34
34,35
35,36
35,37
36,38
37,38
38,39
39,40
39,41
39,42
39,43
40,44
41,53
42,53
43,45
44,52
45,46
46,47
47,48
47,49
49,50
50,51
51,52
52,53
53,68
53,69
53,70
53,71
54,55
55,56
56,57
57,58
57,59
57,60
57,61
57,62
57,63
57,64
57,65
57,66
58,67
59,67
60,67
61,67
62,67
63,67
64,67
65,67
66,67
67,73
68,72
69,72
70,72
71,73
72,78
72,80
73,74
74,75
74,76
75,77
76,81
77,78
78,79
79,81
80,81
81,82
81,84
81,85
82,83
83,86
84,86
85,86
86,87
87,88
87,89

<setup times forward>
4,5:1
4,8:1
4,9:1
5,6:1
5,7:1
5,8:2
5,9:2
5,30:1
6,5:1
6,8:1
6,9:1
6,10:1
6,11:1
7,5:1
7,8:1
7,9:1
7,10:1
7,11:1
7,12:1
8,5:2
8,6:1
8,7:1
8,10:2
8,11:2
8,12:2
8,13:2
8,16:1
8,18:1
8,30:1
9,5:2
9,6:1
9,7:1
9,10:2
9,11:2
9,12:2
9,13:2
9,16:1
9,18:1
9,30:1
10,6:1
10,7:1
10,8:2
10,9:2
10,14:2
10,30:1
11,7:1
11,8:2
11,9:2
11,30:1
12,8:2
12,9:2
12,30:1
13,8:2
13,9:2
13,14:2
13,30:1
14,16:1
14,30:1
15,16:1
15,30:1
16,8:1
16,9:1
16,15:1
16,17:1
16,18:2
16,19:2
16,20:2
16,21:1
16,22:2
16,23:2
16,24:2
16,25:2
16,26:2
16,27:1
16,28:1
16,29:2
16,30:2
16,31:2
16,32:2
16,35:3
16,36:3
16,37:1
16,38:1
16,39:1
16,40:2
16,41:2
16,42:3
16,44:2
16,47:2
16,48:2
16,49:2
16,50:2
16,51:2
16,52:2
17,16:1
17,18:1
17,30:1
18,16:2
19,16:2
19,21:1
19,28:1
19,54:2
19,58:2
19,59:1
19,60:1
19,61:1
19,64:1
19,66:1
19,67:2
20,16:2
20,21:1
20,27:1
20,28:1
21,16:1
21,19:1
21,22:1
21,23:1
21,24:1
21,25:1
21,26:1
21,29:1
21,30:1
21,31:1
21,32:1
21,33:1
21,34:1
21,35:2
21,36:2
21,40:1
21,41:1
21,42:2
21,43:1
21,44:1
21,45:1
21,46:1
21,47:1
21,48:1
21,49:1
21,50:1
21,51:1
21,52:1
21,53:1
21,54:1
21,68:1
21,69:1
21,70:1
21,71:1
21,72:1
21,80:1
22,16:2
22,21:1
22,28:1
22,54:2
22,58:2
22,59:1
22,60:1
22,61:1
22,64:1
22,66:1
22,67:2
23,16:2
23,21:1
23,28:1
23,54:2
23,58:2
23,59:1
23,60:1
23,61:1
23,64:1
23,66:1
23,67:2
24,16:2
24,21:1
24,28:1
24,54:2
24,58:2
24,59:1
24,60:1
24,61:1
24,64:1
24,66:1
24,67:2
25,16:2
25,21:1
25,27:1
25,28:1
25,54:2
25,58:2
25,59:1
25,60:1
25,61:1
25,64:1
25,66:1
25,67:2
26,16:2
26,21:1
26,27:1
26,28:1
26,33:2
26,34:2
26,35:1
26,36:1
26,37:1
26,54:2
26,58:2
26,59:1
26,60:1
26,61:1
26,64:1
26,66:1
26,67:2
27,16:1
27,20:1
27,26:1
27,29:1
27,30:1
27,31:1
27,32:1
27,33:1
27,54:1
27,55:1
27,56:1
27,57:1
27,58:1
27,59:2
27,60:2
27,61:2
27,62:1
27,63:1
27,64:2
27,65:1
27,66:2
27,67:1
28,16:1
28,19:1
28,22:1
28,23:1
28,24:1
28,25:1
28,26:1
28,29:1
28,30:1
28,54:1
28,55:1
28,56:1
28,57:1
28,58:1
28,59:2
28,60:2
28,61:2
28,62:1
28,63:1
28,64:2
28,65:1
28,66:2
28,67:1
29,16:2
29,21:1
29,27:1
29,54:2
29,58:2
29,59:1
29,60:1
29,61:1
29,64:1
29,66:1
29,67:2
30,5:1
30,8:1
30,9:1
30,10:1
30,11:1
30,12:1
30,13:1
30,14:1
30,15:1
30,16:2
30,17:1
30,21:1
30,27:1
30,28:1
30,33:2
30,34:2
30,35:1
30,36:1
30,37:1
30,38:1
30,39:1
30,42:1
30,43:2
30,45:2
30,46:2
30,53:2
30,54:2
30,68:2
30,69:2
30,70:2
30,71:2
30,72:2
30,80:2
31,16:2
31,21:1
31,27:1
31,54:2
31,58:2
31,59:1
31,60:1
31,61:1
31,64:1
31,66:1
31,67:2
32,16:2
32,21:1
32,27:1
32,33:2
32,54:2
32,58:2
32,59:1
32,60:1
32,61:1
32,64:1
32,66:1
32,67:2
33,21:1
33,26:2
33,30:2
33,55:2
33,56:2
33,57:2
33,59:3
33,60:3
33,61:3
33,62:2
33,63:2
33,64:3
33,65:2
33,66:3
34,21:1
34,26:2
34,30:2
34,35:3
34,55:2
34,56:2
34,57:2
34,59:3
34,60:3
34,61:3
34,62:2
34,63:2
34,64:3
34,65:2
34,66:3
35,16:3
35,21:2
35,26:1
35,30:1
35,37:2
35,54:3
35,55:1
35,56:1
35,57:1
35,58:3
35,62:1
35,63:1
35,65:1
35,67:3
36,16:3
36,21:2
36,26:1
36,30:1
36,37:2
36,38:2
36,54:3
36,55:1
36,56:1
36,57:1
36,58:3
36,62:1
36,63:1
36,65:1
36,67:3
37,16:1
37,30:1
37,36:2
37,54:1
37,55:1
37,56:1
37,57:1
37,58:1
37,59:2
37,60:2
37,61:2
37,62:1
37,63:1
37,64:2
37,65:1
37,66:2
37,67:1
38,16:1
38,30:1
38,54:1
38,55:1
38,56:1
38,57:1
38,58:1
38,59:2
38,60:2
38,61:2
38,62:1
38,63:1
38,64:2
38,65:1
38,66:2
38,67:1
39,16:1
39,30:1
39,40:1
39,41:1
39,42:2
39,43:1
39,54:1
39,55:1
39,56:1
39,57:1
39,58:1
39,59:2
39,60:2
39,61:2
39,62:1
39,63:1
39,64:2
39,65:1
39,66:2
39,67:1
40,16:2
40,21:1
40,42:1
40,43:2
40,45:2
40,46:2
40,54:2
40,58:2
40,59:1
40,60:1
40,61:1
40,64:1
40,66:1
40,67:2
41,16:2
41,21:1
41,42:1
41,43:2
41,45:2
41,46:2
41,53:2
41,54:2
41,58:2
41,59:1
41,60:1
41,61:1
41,64:1
41,66:1
41,67:2
42,16:3
42,21:2
42,30:1
42,40:1
42,41:1
42,43:3
42,44:1
42,45:3
42,46:3
42,47:1
42,48:1
42,49:1
42,50:1
42,51:1
42,52:1
42,53:3
42,54:3
42,55:1
42,56:1
42,57:1
42,58:3
42,62:1
42,63:1
42,65:1
42,67:3
43,21:1
43,30:2
43,40:2
43,41:2
43,42:3
43,44:2
43,55:2
43,56:2
43,57:2
43,59:3
43,60:3
43,61:3
43,62:2
43,63:2
43,64:3
43,65:2
43,66:3
44,16:2
44,21:1
44,42:1
44,43:2
44,45:2
44,46:2
44,54:2
44,58:2
44,59:1
44,60:1
44,61:1
44,64:1
44,66:1
44,67:2
45,21:1
45,30:2
45,40:2
45,41:2
45,42:3
45,44:2
45,55:2
45,56:2
45,57:2
45,59:3
45,60:3
45,61:3
45,62:2
45,63:2
45,64:3
45,65:2
45,66:3
46,21:1
46,30:2
46,40:2
46,41:2
46,42:3
46,44:2
46,47:2
46,55:2
46,56:2
46,57:2
46,59:3
46,60:3
46,61:3
46,62:2
46,63:2
46,64:3
46,65:2
46,66:3
47,16:2
47,21:1
47,42:1
47,54:2
47,58:2
47,59:1
47,60:1
47,61:1
47,64:1
47,66:1
47,67:2
48,16:2
48,21:1
48,42:1
48,53:2
48,54:2
48,58:2
48,59:1
48,60:1
48,61:1
48,64:1
48,66:1
48,67:2
48,68:2
48,69:2
48,70:2
48,71:2
48,72:2
48,73:2
48,74:2
48,75:1
48,76:1
48,77:1
48,78:1
48,79:1
48,80:2
48,81:1
48,82:1
48,83:1
48,84:1
48,85:1
49,16:2
49,21:1
49,42:1
49,54:2
49,58:2
49,59:1
49,60:1
49,61:1
49,64:1
49,66:1
49,67:2
50,16:2
50,21:1
50,42:1
50,54:2
50,58:2
50,59:1
50,60:1
50,61:1
50,64:1
50,66:1
50,67:2
51,16:2
51,21:1
51,42:1
51,54:2
51,58:2
51,59:1
51,60:1
51,61:1
51,64:1
51,66:1
51,67:2
52,16:2
52,21:1
52,42:1
52,53:2
52,54:2
52,58:2
52,59:1
52,60:1
52,61:1
52,64:1
52,66:1
52,67:2
53,21:1
53,30:2
53,48:2
53,55:2
53,56:2
53,57:2
53,59:3
53,60:3
53,61:3
53,62:2
53,63:2
53,64:3
53,65:2
53,66:3
54,19:2
54,22:2
54,23:2
54,24:2
54,25:2
54,26:2
54,27:1
54,28:1
54,29:2
54,31:2
54,32:2
54,35:3
54,36:3
54,37:1
54,38:1
54,39:1
54,40:2
54,41:2
54,42:3
54,44:2
54,47:2
54,48:2
54,49:2
54,50:2
54,51:2
54,52:2
54,55:2
55,27:1
55,28:1
55,33:2
55,34:2
55,35:1
55,36:1
55,37:1
55,38:1
55,39:1
55,42:1
55,43:2
55,45:2
55,46:2
55,53:2
55,68:2
55,69:2
55,70:2
55,71:2
55,72:2
55,80:2
56,27:1
56,28:1
56,33:2
56,34:2
56,35:1
56,36:1
56,37:1
56,38:1
56,39:1
56,42:1
56,43:2
56,45:2
56,46:2
56,53:2
56,68:2
56,69:2
56,70:2
56,71:2
56,72:2
56,80:2
57,27:1
57,28:1
57,33:2
57,34:2
57,35:1
57,36:1
57,37:1
57,38:1
57,39:1
57,42:1
57,43:2
57,45:2
57,46:2
57,53:2
57,58:2
57,59:1
57,60:1
57,61:1
57,64:1
57,66:1
57,68:2
57,69:2
57,70:2
57,71:2
57,72:2
57,80:2
58,19:2
58,22:2
58,23:2
58,24:2
58,25:2
58,26:2
58,27:1
58,28:1
58,29:2
58,31:2
58,32:2
58,35:3
58,36:3
58,37:1
58,38:1
58,39:1
58,40:2
58,41:2
58,42:3
58,44:2
58,47:2
58,48:2
58,49:2
58,50:2
58,51:2
58,52:2
58,59:3
58,60:3
58,61:3
58,62:2
58,63:2
58,64:3
58,65:2
58,66:3
59,19:1
59,22:1
59,23:1
59,24:1
59,25:1
59,26:1
59,27:2
59,28:2
59,29:1
59,31:1
59,32:1
59,33:3
59,34:3
59,37:2
59,38:2
59,39:2
59,40:1
59,41:1
59,43:3
59,44:1
59,45:3
59,46:3
59,47:1
59,48:1
59,49:1
59,50:1
59,51:1
59,52:1
59,53:3
59,58:3
59,62:1
59,63:1
59,65:1
59,67:3
59,68:3
59,69:3
59,70:3
59,71:3
59,72:3
59,80:3
60,19:1
60,22:1
60,23:1
60,24:1
60,25:1
60,26:1
60,27:2
60,28:2
60,29:1
60,31:1
60,32:1
60,33:3
60,34:3
60,37:2
60,38:2
60,39:2
60,40:1
60,41:1
60,43:3
60,44:1
60,45:3
60,46:3
60,47:1
60,48:1
60,49:1
60,50:1
60,51:1
60,52:1
60,53:3
60,58:3
60,62:1
60,63:1
60,65:1
60,67:3
60,68:3
60,69:3
60,70:3
60,71:3
60,72:3
60,80:3
61,19:1
61,22:1
61,23:1
61,24:1
61,25:1
61,26:1
61,27:2
61,28:2
61,29:1
61,31:1
61,32:1
61,33:3
61,34:3
61,37:2
61,38:2
61,39:2
61,40:1
61,41:1
61,43:3
61,44:1
61,45:3
61,46:3
61,47:1
61,48:1
61,49:1
61,50:1
61,51:1
61,52:1
61,53:3
61,58:3
61,62:1
61,63:1
61,65:1
61,67:3
61,68:3
61,69:3
61,70:3
61,71:3
61,72:3
61,80:3
62,27:1
62,28:1
62,33:2
62,34:2
62,35:1
62,36:1
62,37:1
62,38:1
62,39:1
62,42:1
62,43:2
62,45:2
62,46:2
62,53:2
62,58:2
62,59:1
62,60:1
62,61:1
62,64:1
62,66:1
62,67:2
62,68:2
62,69:2
62,70:2
62,71:2
62,72:2
62,80:2
63,27:1
63,28:1
63,33:2
63,34:2
63,35:1
63,36:1
63,37:1
63,38:1
63,39:1
63,42:1
63,43:2
63,45:2
63,46:2
63,53:2
63,58:2
63,59:1
63,60:1
63,61:1
63,64:1
63,66:1
63,67:2
63,68:2
63,69:2
63,70:2
63,71:2
63,72:2
63,80:2
64,19:1
64,22:1
64,23:1
64,24:1
64,25:1
64,26:1
64,27:2
64,28:2
64,29:1
64,31:1
64,32:1
64,33:3
64,34:3
64,37:2
64,38:2
64,39:2
64,40:1
64,41:1
64,43:3
64,44:1
64,45:3
64,46:3
64,47:1
64,48:1
64,49:1
64,50:1
64,51:1
64,52:1
64,53:3
64,58:3
64,62:1
64,63:1
64,65:1
64,67:3
64,68:3
64,69:3
64,70:3
64,71:3
64,72:3
64,80:3
65,27:1
65,28:1
65,33:2
65,34:2
65,35:1
65,36:1
65,37:1
65,38:1
65,39:1
65,42:1
65,43:2
65,45:2
65,46:2
65,53:2
65,58:2
65,59:1
65,60:1
65,61:1
65,64:1
65,66:1
65,67:2
65,68:2
65,69:2
65,70:2
65,71:2
65,72:2
65,80:2
66,19:1
66,22:1
66,23:1
66,24:1
66,25:1
66,26:1
66,27:2
66,28:2
66,29:1
66,31:1
66,32:1
66,33:3
66,34:3
66,37:2
66,38:2
66,39:2
66,40:1
66,41:1
66,43:3
66,44:1
66,45:3
66,46:3
66,47:1
66,48:1
66,49:1
66,50:1
66,51:1
66,52:1
66,53:3
66,58:3
66,62:1
66,63:1
66,65:1
66,67:3
66,68:3
66,69:3
66,70:3
66,71:3
66,72:3
66,80:3
67,19:2
67,22:2
67,23:2
67,24:2
67,25:2
67,26:2
67,27:1
67,28:1
67,29:2
67,31:2
67,32:2
67,35:3
67,36:3
67,37:1
67,38:1
67,39:1
67,40:2
67,41:2
67,42:3
67,44:2
67,47:2
67,48:2
67,49:2
67,50:2
67,51:2
67,52:2
68,21:1
68,30:2
68,48:2
68,55:2
68,56:2
68,57:2
68,59:3
68,60:3
68,61:3
68,62:2
68,63:2
68,64:3
68,65:2
68,66:3
68,75:3
68,76:3
68,77:3
69,21:1
69,30:2
69,48:2
69,55:2
69,56:2
69,57:2
69,59:3
69,60:3
69,61:3
69,62:2
69,63:2
69,64:3
69,65:2
69,66:3
69,75:3
69,76:3
69,77:3
70,21:1
70,30:2
70,48:2
70,55:2
70,56:2
70,57:2
70,59:3
70,60:3
70,61:3
70,62:2
70,63:2
70,64:3
70,65:2
70,66:3
70,75:3
70,76:3
70,77:3
71,21:1
71,30:2
71,48:2
71,55:2
71,56:2
71,57:2
71,59:3
71,60:3
71,61:3
71,62:2
71,63:2
71,64:3
71,65:2
71,66:3
72,21:1
72,30:2
72,48:2
72,55:2
72,56:2
72,57:2
72,59:3
72,60:3
72,61:3
72,62:2
72,63:2
72,64:3
72,65:2
72,66:3
72,75:3
72,76:3
72,77:3
72,78:3
73,48:2
74,48:2
74,75:3
74,76:3
75,48:1
75,68:3
75,69:3
75,70:3
75,72:3
75,80:3
76,48:1
76,68:3
76,69:3
76,70:3
76,72:3
76,80:3
76,81:2
77,48:1
77,68:3
77,69:3
77,70:3
77,72:3
77,80:3
78,48:1
78,80:3
79,48:1
79,80:3
79,81:2
80,21:1
80,30:2
80,48:2
80,55:2
80,56:2
80,57:2
80,59:3
80,60:3
80,61:3
80,62:2
80,63:2
80,64:3
80,65:2
80,66:3
80,75:3
80,76:3
80,77:3
80,78:3
80,79:3
80,81:1
81,48:1
82,48:1
83,48:1
83,86:1
84,48:1
84,86:1
85,48:1
85,86:1

<setup times backward>
5,1:1
5,2:1
5,3:1
5,4:1
5,6:1
5,7:1
5,8:2
5,9:2
5,30:1
6,8:1
6,9:1
7,8:1
7,9:1
8,16:1
9,16:1
10,1:1
10,2:1
10,3:1
10,4:1
10,6:1
10,7:1
10,8:2
10,9:2
10,30:1
11,1:1
11,2:1
11,3:1
11,4:1
11,6:1
11,7:1
11,8:2
11,9:2
11,30:1
12,1:1
12,2:1
12,3:1
12,4:1
12,6:1
12,7:1
12,8:2
12,9:2
12,30:1
13,1:1
13,2:1
13,3:1
13,4:1
13,6:1
13,7:1
13,8:2
13,9:2
13,30:1
15,16:1
17,16:1
18,8:1
18,9:1
18,14:1
18,15:1
18,16:2
18,17:1
19,8:1
19,9:1
19,14:1
19,15:1
19,16:2
19,17:1
19,21:1
19,28:1
19,54:2
19,58:2
19,67:2
20,8:1
20,9:1
20,14:1
20,15:1
20,16:2
20,17:1
20,27:1
21,16:1
21,33:1
21,34:1
21,43:1
21,45:1
21,46:1
21,53:1
21,68:1
21,69:1
21,70:1
21,71:1
21,72:1
21,80:1
22,8:1
22,9:1
22,14:1
22,15:1
22,16:2
22,17:1
22,21:1
22,28:1
22,54:2
22,58:2
22,67:2
23,8:1
23,9:1
23,14:1
23,15:1
23,16:2
23,17:1
23,21:1
23,28:1
23,54:2
23,58:2
23,67:2
24,8:1
24,9:1
24,14:1
24,15:1
24,16:2
24,17:1
24,21:1
24,28:1
24,54:2
24,58:2
24,67:2
25,8:1
25,9:1
25,14:1
25,15:1
25,16:2
25,17:1
25,21:1
25,28:1
25,54:2
25,58:2
25,67:2
26,8:1
26,9:1
26,14:1
26,15:1
26,16:2
26,17:1
26,21:1
26,27:1
26,28:1
26,33:2
26,34:2
26,54:2
26,58:2
26,67:2
27,16:1
27,54:1
27,58:1
27,67:1
28,16:1
28,54:1
28,58:1
28,67:1
29,8:1
29,9:1
29,14:1
29,15:1
29,16:2
29,17:1
29,21:1
29,27:1
29,28:1
29,54:2
29,58:2
29,67:2
30,8:1
30,9:1
30,14:1
30,15:1
30,16:2
30,17:1
30,21:1
30,27:1
30,28:1
30,33:2
30,34:2
30,37:1
30,38:1
30,39:1
30,43:2
30,45:2
30,46:2
30,53:2
30,68:2
30,69:2
30,70:2
30,71:2
30,72:2
30,80:2
31,8:1
31,9:1
31,14:1
31,15:1
31,16:2
31,17:1
31,21:1
31,27:1
31,28:1
31,54:2
31,58:2
31,67:2
32,8:1
32,9:1
32,14:1
32,15:1
32,16:2
32,17:1
32,21:1
32,27:1
32,28:1
32,54:2
32,58:2
32,67:2
35,1:1
35,2:1
35,3:1
35,4:1
35,6:1
35,7:1
35,8:2
35,9:2
35,14:2
35,15:2
35,16:3
35,17:2
35,18:1
35,19:1
35,20:1
35,21:2
35,22:1
35,23:1
35,24:1
35,25:1
35,26:1
35,27:2
35,28:2
35,29:1
35,30:1
35,31:1
35,32:1
35,33:3
35,34:3
35,54:3
35,55:1
35,56:1
35,57:1
35,58:3
35,62:1
35,63:1
35,65:1
35,67:3
36,1:1
36,2:1
36,3:1
36,4:1
36,6:1
36,7:1
36,8:2
36,9:2
36,14:2
36,15:2
36,16:3
36,17:2
36,18:1
36,19:1
36,20:1
36,21:2
36,22:1
36,23:1
36,24:1
36,25:1
36,26:1
36,27:2
36,28:2
36,29:1
36,30:1
36,31:1
36,32:1
36,33:3
36,34:3
36,37:2
36,54:3
36,55:1
36,56:1
36,57:1
36,58:3
36,62:1
36,63:1
36,65:1
36,67:3
37,16:1
37,33:1
37,34:1
37,54:1
37,58:1
37,67:1
38,16:1
38,33:1
38,34:1
38,54:1
38,58:1
38,67:1
39,16:1
39,33:1
39,34:1
39,54:1
39,58:1
39,67:1
40,8:1
40,9:1
40,14:1
40,15:1
40,16:2
40,17:1
40,21:1
40,27:1
40,28:1
40,33:2
40,34:2
40,37:1
40,38:1
40,39:1
40,43:2
40,45:2
40,46:2
40,54:2
40,58:2
40,67:2
41,8:1
41,9:1
41,14:1
41,15:1
41,16:2
41,17:1
41,21:1
41,27:1
41,28:1
41,33:2
41,34:2
41,37:1
41,38:1
41,39:1
41,43:2
41,45:2
41,46:2
41,54:2
41,58:2
41,67:2
42,1:1
42,2:1
42,3:1
42,4:1
42,6:1
42,7:1
42,8:2
42,9:2
42,14:2
42,15:2
42,16:3
42,17:2
42,18:1
42,19:1
42,20:1
42,21:2
42,22:1
42,23:1
42,24:1
42,25:1
42,26:1
42,27:2
42,28:2
42,29:1
42,30:1
42,31:1
42,32:1
42,33:3
42,34:3
42,37:2
42,38:2
42,39:2
42,40:1
42,41:1
42,43:3
42,44:1
42,45:3
42,46:3
42,47:1
42,48:1
42,49:1
42,50:1
42,51:1
42,52:1
42,54:3
42,55:1
42,56:1
42,57:1
42,58:3
42,62:1
42,63:1
42,65:1
42,67:3
44,8:1
44,9:1
44,14:1
44,15:1
44,16:2
44,17:1
44,21:1
44,27:1
44,28:1
44,33:2
44,34:2
44,37:1
44,38:1
44,39:1
44,43:2
44,45:2
44,46:2
44,54:2
44,58:2
44,67:2
47,8:1
47,9:1
47,14:1
47,15:1
47,16:2
47,17:1
47,21:1
47,27:1
47,28:1
47,33:2
47,34:2
47,37:1
47,38:1
47,39:1
47,43:2
47,45:2
47,46:2
47,54:2
47,58:2
47,67:2
48,8:1
48,9:1
48,14:1
48,15:1
48,16:2
48,17:1
48,21:1
48,27:1
48,28:1
48,33:2
48,34:2
48,37:1
48,38:1
48,39:1
48,43:2
48,45:2
48,46:2
48,53:2
48,54:2
48,58:2
48,67:2
48,68:2
48,69:2
48,70:2
48,71:2
48,72:2
48,73:2
48,74:2
48,80:2
48,81:1
48,82:1
48,83:1
48,84:1
48,85:1
49,8:1
49,9:1
49,14:1
49,15:1
49,16:2
49,17:1
49,21:1
49,27:1
49,28:1
49,33:2
49,34:2
49,37:1
49,38:1
49,39:1
49,43:2
49,45:2
49,46:2
49,54:2
49,58:2
49,67:2
50,8:1
50,9:1
50,14:1
50,15:1
50,16:2
50,17:1
50,21:1
50,27:1
50,28:1
50,33:2
50,34:2
50,37:1
50,38:1
50,39:1
50,43:2
50,45:2
50,46:2
50,54:2
50,58:2
50,67:2
51,8:1
51,9:1
51,14:1
51,15:1
51,16:2
51,17:1
51,21:1
51,27:1
51,28:1
51,33:2
51,34:2
51,37:1
51,38:1
51,39:1
51,43:2
51,45:2
51,46:2
51,54:2
51,58:2
51,67:2
52,8:1
52,9:1
52,14:1
52,15:1
52,16:2
52,17:1
52,21:1
52,27:1
52,28:1
52,33:2
52,34:2
52,37:1
52,38:1
52,39:1
52,43:2
52,45:2
52,46:2
52,54:2
52,58:2
52,67:2
55,8:1
55,9:1
55,14:1
55,15:1
55,16:2
55,17:1
55,21:1
55,27:1
55,28:1
55,33:2
55,34:2
55,37:1
55,38:1
55,39:1
55,43:2
55,45:2
55,46:2
55,53:2
55,54:2
55,68:2
55,69:2
55,70:2
55,71:2
55,72:2
55,80:2
56,8:1
56,9:1
56,14:1
56,15:1
56,16:2
56,17:1
56,21:1
56,27:1
56,28:1
56,33:2
56,34:2
56,37:1
56,38:1
56,39:1
56,43:2
56,45:2
56,46:2
56,53:2
56,54:2
56,68:2
56,69:2
56,70:2
56,71:2
56,72:2
56,80:2
57,8:1
57,9:1
57,14:1
57,15:1
57,16:2
57,17:1
57,21:1
57,27:1
57,28:1
57,33:2
57,34:2
57,37:1
57,38:1
57,39:1
57,43:2
57,45:2
57,46:2
57,53:2
57,54:2
57,68:2
57,69:2
57,70:2
57,71:2
57,72:2
57,80:2
59,1:1
59,2:1
59,3:1
59,4:1
59,6:1
59,7:1
59,8:2
59,9:2
59,14:2
59,15:2
59,16:3
59,17:2
59,18:1
59,19:1
59,20:1
59,21:2
59,22:1
59,23:1
59,24:1
59,25:1
59,26:1
59,27:2
59,28:2
59,29:1
59,30:1
59,31:1
59,32:1
59,33:3
59,34:3
59,37:2
59,38:2
59,39:2
59,40:1
59,41:1
59,43:3
59,44:1
59,45:3
59,46:3
59,47:1
59,48:1
59,49:1
59,50:1
59,51:1
59,52:1
59,53:3
59,54:3
59,55:1
59,56:1
59,57:1
59,58:3
59,62:1
59,63:1
59,65:1
59,68:3
59,69:3
59,70:3
59,71:3
59,72:3
59,80:3
60,1:1
60,2:1
60,3:1
60,4:1
60,6:1
60,7:1
60,8:2
60,9:2
60,14:2
60,15:2
60,16:3
60,17:2
60,18:1
60,19:1
60,20:1
60,21:2
60,22:1
60,23:1
60,24:1
60,25:1
60,26:1
60,27:2
60,28:2
60,29:1
60,30:1
60,31:1
60,32:1
60,33:3
60,34:3
60,37:2
60,38:2
60,39:2
60,40:1
60,41:1
60,43:3
60,44:1
60,45:3
60,46:3
60,47:1
60,48:1
60,49:1
60,50:1
60,51:1
60,52:1
60,53:3
60,54:3
60,55:1
60,56:1
60,57:1
60,58:3
60,62:1
60,63:1
60,65:1
60,68:3
60,69:3
60,70:3
60,71:3
60,72:3
60,80:3
61,1:1
61,2:1
61,3:1
61,4:1
61,6:1
61,7:1
61,8:2
61,9:2
61,14:2
61,15:2
61,16:3
61,17:2
61,18:1
61,19:1
61,20:1
61,21:2
61,22:1
61,23:1
61,24:1
61,25:1
61,26:1
61,27:2
61,28:2
61,29:1
61,30:1
61,31:1
61,32:1
61,33:3
61,34:3
61,37:2
61,38:2
61,39:2
61,40:1
61,41:1
61,43:3
61,44:1
61,45:3
61,46:3
61,47:1
61,48:1
61,49:1
61,50:1
61,51:1
61,52:1
61,53:3
61,54:3
61,55:1
61,56:1
61,57:1
61,58:3
61,62:1
61,63:1
61,65:1
61,68:3
61,69:3
61,70:3
61,71:3
61,72:3
61,80:3
62,8:1
62,9:1
62,14:1
62,15:1
62,16:2
62,17:1
62,21:1
62,27:1
62,28:1
62,33:2
62,34:2
62,37:1
62,38:1
62,39:1
62,43:2
62,45:2
62,46:2
62,53:2
62,54:2
62,58:2
62,68:2
62,69:2
62,70:2
62,71:2
62,72:2
62,80:2
63,8:1
63,9:1
63,14:1
63,15:1
63,16:2
63,17:1
63,21:1
63,27:1
63,28:1
63,33:2
63,34:2
63,37:1
63,38:1
63,39:1
63,43:2
63,45:2
63,46:2
63,53:2
63,54:2
63,58:2
63,68:2
63,69:2
63,70:2
63,71:2
63,72:2
63,80:2
64,1:1
64,2:1
64,3:1
64,4:1
64,6:1
64,7:1
64,8:2
64,9:2
64,14:2
64,15:2
64,16:3
64,17:2
64,18:1
64,19:1
64,20:1
64,21:2
64,22:1
64,23:1
64,24:1
64,25:1
64,26:1
64,27:2
64,28:2
64,29:1
64,30:1
64,31:1
64,32:1
64,33:3
64,34:3
64,37:2
64,38:2
64,39:2
64,40:1
64,41:1
64,43:3
64,44:1
64,45:3
64,46:3
64,47:1
64,48:1
64,49:1
64,50:1
64,51:1
64,52:1
64,53:3
64,54:3
64,55:1
64,56:1
64,57:1
64,58:3
64,62:1
64,63:1
64,65:1
64,68:3
64,69:3
64,70:3
64,71:3
64,72:3
64,80:3
65,8:1
65,9:1
65,14:1
65,15:1
65,16:2
65,17:1
65,21:1
65,27:1
65,28:1
65,33:2
65,34:2
65,37:1
65,38:1
65,39:1
65,43:2
65,45:2
65,46:2
65,53:2
65,54:2
65,58:2
65,68:2
65,69:2
65,70:2
65,71:2
65,72:2
65,80:2
66,1:1
66,2:1
66,3:1
66,4:1
66,6:1
66,7:1
66,8:2
66,9:2
66,14:2
66,15:2
66,16:3
66,17:2
66,18:1
66,19:1
66,20:1
66,21:2
66,22:1
66,23:1
66,24:1
66,25:1
66,26:1
66,27:2
66,28:2
66,29:1
66,30:1
66,31:1
66,32:1
66,33:3
66,34:3
66,37:2
66,38:2
66,39:2
66,40:1
66,41:1
66,43:3
66,44:1
66,45:3
66,46:3
66,47:1
66,48:1
66,49:1
66,50:1
66,51:1
66,52:1
66,53:3
66,54:3
66,55:1
66,56:1
66,57:1
66,58:3
66,62:1
66,63:1
66,65:1
66,68:3
66,69:3
66,70:3
66,71:3
66,72:3
66,80:3
75,1:1
75,2:1
75,3:1
75,4:1
75,6:1
75,7:1
75,8:2
75,9:2
75,14:2
75,15:2
75,16:3
75,17:2
75,18:1
75,19:1
75,20:1
75,21:2
75,22:1
75,23:1
75,24:1
75,25:1
75,26:1
75,27:2
75,28:2
75,29:1
75,30:1
75,31:1
75,32:1
75,33:3
75,34:3
75,37:2
75,38:2
75,39:2
75,40:1
75,41:1
75,43:3
75,44:1
75,45:3
75,46:3
75,47:1
75,48:1
75,49:1
75,50:1
75,51:1
75,52:1
75,53:3
75,54:3
75,55:1
75,56:1
75,57:1
75,58:3
75,62:1
75,63:1
75,65:1
75,67:3
75,68:3
75,69:3
75,70:3
75,71:3
75,72:3
75,73:3
75,74:3
75,80:3
76,1:1
76,2:1
76,3:1
76,4:1
76,6:1
76,7:1
76,8:2
76,9:2
76,14:2
76,15:2
76,16:3
76,17:2
76,18:1
76,19:1
76,20:1
76,21:2
76,22:1
76,23:1
76,24:1
76,25:1
76,26:1
76,27:2
76,28:2
76,29:1
76,30:1
76,31:1
76,32:1
76,33:3
76,34:3
76,37:2
76,38:2
76,39:2
76,40:1
76,41:1
76,43:3
76,44:1
76,45:3
76,46:3
76,47:1
76,48:1
76,49:1
76,50:1
76,51:1
76,52:1
76,53:3
76,54:3
76,55:1
76,56:1
76,57:1
76,58:3
76,62:1
76,63:1
76,65:1
76,67:3
76,68:3
76,69:3
76,70:3
76,71:3
76,72:3
76,73:3
76,74:3
76,80:3
77,1:1
77,2:1
77,3:1
77,4:1
77,6:1
77,7:1
77,8:2
77,9:2
77,14:2
77,15:2
77,16:3
77,17:2
77,18:1
77,19:1
77,20:1
77,21:2
77,22:1
77,23:1
77,24:1
77,25:1
77,26:1
77,27:2
77,28:2
77,29:1
77,30:1
77,31:1
77,32:1
77,33:3
77,34:3
77,37:2
77,38:2
77,39:2
77,40:1
77,41:1
77,43:3
77,44:1
77,45:3
77,46:3
77,47:1
77,48:1
77,49:1
77,50:1
77,51:1
77,52:1
77,53:3
77,54:3
77,55:1
77,56:1
77,57:1
77,58:3
77,62:1
77,63:1
77,65:1
77,67:3
77,68:3
77,69:3
77,70:3
77,71:3
77,72:3
77,73:3
77,74:3
77,80:3
78,1:1
78,2:1
78,3:1
78,4:1
78,6:1
78,7:1
78,8:2
78,9:2
78,14:2
78,15:2
78,16:3
78,17:2
78,18:1
78,19:1
78,20:1
78,21:2
78,22:1
78,23:1
78,24:1
78,25:1
78,26:1
78,27:2
78,28:2
78,29:1
78,30:1
78,31:1
78,32:1
78,33:3
78,34:3
78,37:2
78,38:2
78,39:2
78,40:1
78,41:1
78,43:3
78,44:1
78,45:3
78,46:3
78,47:1
78,48:1
78,49:1
78,50:1
78,51:1
78,52:1
78,53:3
78,54:3
78,55:1
78,56:1
78,57:1
78,58:3
78,62:1
78,63:1
78,65:1
78,67:3
78,68:3
78,69:3
78,70:3
78,71:3
78,72:3
78,73:3
78,74:3
78,80:3
79,1:1
79,2:1
79,3:1
79,4:1
79,6:1
79,7:1
79,8:2
79,9:2
79,14:2
79,15:2
79,16:3
79,17:2
79,18:1
79,19:1
79,20:1
79,21:2
79,22:1
79,23:1
79,24:1
79,25:1
79,26:1
79,27:2
79,28:2
79,29:1
79,30:1
79,31:1
79,32:1
79,33:3
79,34:3
79,37:2
79,38:2
79,39:2
79,40:1
79,41:1
79,43:3
79,44:1
79,45:3
79,46:3
79,47:1
79,48:1
79,49:1
79,50:1
79,51:1
79,52:1
79,53:3
79,54:3
79,55:1
79,56:1
79,57:1
79,58:3
79,62:1
79,63:1
79,65:1
79,67:3
79,68:3
79,69:3
79,70:3
79,71:3
79,72:3
79,73:3
79,74:3
79,80:3
81,16:1
81,33:1
81,34:1
81,43:1
81,45:1
81,46:1
81,53:1
81,54:1
81,58:1
81,67:1
81,68:1
81,69:1
81,70:1
81,71:1
81,72:1
81,73:1
81,74:1
81,80:1
82,16:1
82,33:1
82,34:1
82,43:1
82,45:1
82,46:1
82,53:1
82,54:1
82,58:1
82,67:1
82,68:1
82,69:1
82,70:1
82,71:1
82,72:1
82,73:1
82,74:1
82,80:1
83,16:1
83,33:1
83,34:1
83,43:1
83,45:1
83,46:1
83,53:1
83,54:1
83,58:1
83,67:1
83,68:1
83,69:1
83,70:1
83,71:1
83,72:1
83,73:1
83,74:1
83,80:1
84,16:1
84,33:1
84,34:1
84,43:1
84,45:1
84,46:1
84,53:1
84,54:1
84,58:1
84,67:1
84,68:1
84,69:1
84,70:1
84,71:1
84,72:1
84,73:1
84,74:1
84,80:1
85,16:1
85,33:1
85,34:1
85,43:1
85,45:1
85,46:1
85,53:1
85,54:1
85,58:1
85,67:1
85,68:1
85,69:1
85,70:1
85,71:1
85,72:1
85,73:1
85,74:1
85,80:1
86,8:1
86,9:1
86,14:1
86,15:1
86,16:2
86,17:1
86,21:1
86,27:1
86,28:1
86,33:2
86,34:2
86,37:1
86,38:1
86,39:1
86,43:2
86,45:2
86,46:2
86,53:2
86,54:2
86,58:2
86,67:2
86,68:2
86,69:2
86,70:2
86,71:2
86,72:2
86,73:2
86,74:2
86,80:2
86,81:1
86,82:1
86,83:1
86,84:1
86,85:1
87,8:1
87,9:1
87,14:1
87,15:1
87,16:2
87,17:1
87,21:1
87,27:1
87,28:1
87,33:2
87,34:2
87,37:1
87,38:1
87,39:1
87,43:2
87,45:2
87,46:2
87,53:2
87,54:2
87,58:2
87,67:2
87,68:2
87,69:2
87,70:2
87,71:2
87,72:2
87,73:2
87,74:2
87,80:2
87,81:1
87,82:1
87,83:1
87,84:1
87,85:1
88,8:1
88,9:1
88,14:1
88,15:1
88,16:2
88,17:1
88,21:1
88,27:1
88,28:1
88,33:2
88,34:2
88,37:1
88,38:1
88,39:1
88,43:2
88,45:2
88,46:2
88,53:2
88,54:2
88,58:2
88,67:2
88,68:2
88,69:2
88,70:2
88,71:2
88,72:2
88,73:2
88,74:2
88,80:2
88,81:1
88,82:1
88,83:1
88,84:1
88,85:1
89,8:1
89,9:1
89,14:1
89,15:1
89,16:2
89,17:1
89,21:1
89,27:1
89,28:1
89,33:2
89,34:2
89,37:1
89,38:1
89,39:1
89,43:2
89,45:2
89,46:2
89,53:2
89,54:2
89,58:2
89,67:2
89,68:2
89,69:2
89,70:2
89,71:2
89,72:2
89,73:2
89,74:2
89,80:2
89,81:1
89,82:1
89,83:1
89,84:1
89,85:1

<end>

<optimal SALBP-1 value>
19


<rand seed>
467321153

<Lower Bounds>
Lm1=18
Lms1=18
Lm2=4
Lm3=8
Lm4=18
Best=18

<Optimal Stations (Iterations: 10)>
21
